NAME: tsp40_18
COMMENT: 40-tsp problem (Padberg/Rinaldi)
TYPE: TSP
DIMENSION: 40
EDGE_WEIGHT_TYPE : EUC_2D
NODE_COORD_SECTION
1 21 19
2 28 35
3 28 32
4 15 0
5 30 9
6 10 2
7 16 12
8 31 35
9 14 32
10 30 8
11 20 11
12 12 20
13 35 34
14 15 39
15 16 1
16 17 7
17 35 8
18 24 39
19 20 26
20 8 39
21 17 16
22 5 26
23 13 8
24 23 14
25 30 10
26 29 36
27 3 2
28 20 31
29 36 38
30 21 5
31 8 32
32 32 16
33 3 14
34 34 7
35 38 13
36 7 37
37 32 2
38 16 18
39 29 37
40 37 3
